HUN,8,6,892
2,24,0,30,1,28,4,28,5,29,3,23
4,29,3,27,0,27,5,22,1,25,2,25
1,30,0,30,5,29,3,29,2,28,4,21
5,21,0,21,4,26,3,25,2,28,1,21
2,25,0,27,5,27,1,28,4,23,3,24
5,27,3,29,1,25,4,26,2,30,0,26
5,22,4,23,1,23,2,23,3,21,0,26
5,24,1,24,0,25,4,28,2,25,3,27
